solution status: optimal solution found
objective value:                     142992.642857139
d11(0,0)                                            1 	(obj:0)
d11(1,1)                                            1 	(obj:0)
d11(1,2)                                            1 	(obj:0)
d11(1,3)                                            1 	(obj:0)
d11(2,4)                                            1 	(obj:0)
d11(2,5)                                            1 	(obj:0)
d11(2,7)                                            1 	(obj:0)
d11(2,8)                                            1 	(obj:0)
d11(2,10)                                           1 	(obj:0)
d11(2,11)                                           1 	(obj:0)
d11(3,13)                                           1 	(obj:0)
d11(3,14)                                           1 	(obj:0)
d11(3,15)                                           1 	(obj:0)
d11(3,16)                                           1 	(obj:0)
d11(3,17)                                           1 	(obj:0)
d11(3,18)                                           1 	(obj:0)
d11(3,19)                                           1 	(obj:0)
d11(3,20)                                           1 	(obj:0)
d11(3,21)                                           1 	(obj:0)
d11(3,22)                                           1 	(obj:0)
d11(3,23)                                           1 	(obj:0)
d11(3,24)                                           1 	(obj:0)
d11(3,25)                                           1 	(obj:0)
d11(3,26)                                           1 	(obj:0)
d11(3,27)                                           1 	(obj:0)
d11(3,28)                                           1 	(obj:0)
d11(3,29)                                           1 	(obj:0)
d11(3,30)                                           1 	(obj:0)
d11(3,31)                                           1 	(obj:0)
d11(3,32)                                           1 	(obj:0)
d11(3,33)                                           1 	(obj:0)
d11(3,34)                                           1 	(obj:0)
d11(3,35)                                           1 	(obj:0)
d11(3,36)                                           1 	(obj:0)
d11(3,37)                                           1 	(obj:0)
d11(3,38)                                           1 	(obj:0)
d12(2,6)                                            1 	(obj:0)
d12(2,9)                                            1 	(obj:0)
d12(2,12)                                           1 	(obj:0)
d21(3,13)                                           1 	(obj:0)
d21(3,14)                                           1 	(obj:0)
d21(3,15)                                           1 	(obj:0)
d21(3,16)                                           1 	(obj:0)
d21(3,17)                                           1 	(obj:0)
d21(3,19)                                           1 	(obj:0)
d21(3,22)                                           1 	(obj:0)
d21(3,23)                                           1 	(obj:0)
d21(3,25)                                           1 	(obj:0)
d21(3,28)                                           1 	(obj:0)
d21(3,31)                                           1 	(obj:0)
STE(1,1)                             8041.45557992218 	(obj:0)
STE(0,0)                                        12600 	(obj:0)
STE(1,2)                             9038.22158325549 	(obj:0)
STE(1,3)                             10255.6737865889 	(obj:0)
STE(2,4)                              5271.9201966668 	(obj:0)
STE(2,5)                             6268.68620000009 	(obj:0)
STE(2,6)                             7265.45220333339 	(obj:0)
STE(2,7)                             6268.68620000012 	(obj:0)
STE(2,8)                             7265.45220333341 	(obj:0)
STE(2,9)                             8262.21820666671 	(obj:0)
STE(2,10)                             7486.1384033335 	(obj:0)
STE(2,11)                            8482.90440666676 	(obj:0)
STE(2,12)                            9479.67041000008 	(obj:0)
STE(3,13)                            2049.70199000011 	(obj:0)
STE(3,14)                             3046.4679933334 	(obj:0)
STE(3,15)                             4263.9201966668 	(obj:0)
STE(3,16)                             3046.4679933334 	(obj:0)
STE(3,17)                            4043.23399666669 	(obj:0)
STE(3,18)                            5260.68620000007 	(obj:0)
STE(3,19)                             4043.2339966667 	(obj:0)
STE(3,20)                            5039.99999999999 	(obj:0)
STE(3,21)                            6257.45220333336 	(obj:0)
STE(3,22)                            3046.46799333342 	(obj:0)
STE(3,23)                            4043.23399666671 	(obj:0)
STE(3,24)                            5260.68620000018 	(obj:0)
STE(3,25)                            4043.23399666671 	(obj:0)
STE(3,26)                                        5040 	(obj:0)
STE(3,27)                            6257.45220333341 	(obj:0)
STE(3,28)                                        5040 	(obj:0)
STE(3,29)                             6036.7660033333 	(obj:0)
STE(3,30)                            7254.21820666668 	(obj:0)
STE(3,31)                             4263.9201966668 	(obj:0)
STE(3,32)                            5260.68620000009 	(obj:0)
STE(3,33)                             6478.1384033335 	(obj:0)
STE(3,34)                            5260.68620000006 	(obj:0)
STE(3,35)                            6257.45220333335 	(obj:0)
STE(3,36)                            7474.90440666669 	(obj:0)
STE(3,37)                            6257.45220333339 	(obj:0)
STE(3,38)                            7254.21820666668 	(obj:0)
STE(3,39)                            8471.67041000008 	(obj:0)
y1(3,23)                             1095.70698300007 	(obj:0)
y1(3,25)                             1992.79638600003 	(obj:0)
y1(3,26)                             1095.70698300007 	(obj:0)
y1(3,28)                             1992.79638600004 	(obj:0)
y1(3,29)                             1095.70698300007 	(obj:0)
y1(3,31)                             1992.79638600003 	(obj:0)
y1(3,32)                             1095.70698300007 	(obj:0)
y1(3,34)                             1992.79638600003 	(obj:0)
y1(3,35)                             1095.70698300007 	(obj:0)
y1(3,37)                             1992.79638600003 	(obj:0)
y1(3,38)                             1095.70698300007 	(obj:0)
BG(3)                                1204.56299667525 	(obj:10)
AVE(1)                               3199.95851117552 	(obj:0)
AVE(2)                               3265.15049132519 	(obj:0)
AVE(3)                               3291.35535332476 	(obj:0)
WG(1)                                3199.95851117552 	(obj:10)
WG(2)                                3265.15049132519 	(obj:10)
WG(3)                                3291.35535332476 	(obj:10)
BG(1)                                2523.19819807961 	(obj:10)
BG(2)                                815.038735133814 	(obj:10)
y1(1,1)                              3195.48997807004 	(obj:0)
y1(1,2)                              2298.40057507006 	(obj:0)
y1(1,3)                              1202.69359207002 	(obj:0)
y1(2,4)                              1585.38184492984 	(obj:0)
y1(2,5)                              688.292441929877 	(obj:0)
y1(2,7)                              1585.38184492984 	(obj:0)
y1(2,8)                              688.292441929877 	(obj:0)
y1(2,10)                             1585.38184492984 	(obj:0)
y1(2,11)                             688.292441929904 	(obj:0)
y1(3,13)                             1992.79638600003 	(obj:0)
y1(3,14)                             1095.70698300007 	(obj:0)
y1(3,16)                             1992.79638600003 	(obj:0)
y1(3,17)                             1095.70698300007 	(obj:0)
y1(3,19)                             1992.79638600003 	(obj:0)
y1(3,20)                             1095.70698300007 	(obj:0)
y1(3,22)                             1992.79638600003 	(obj:0)
y2(2,6)                              244.206972011802 	(obj:0)
y2(2,9)                              244.206972011802 	(obj:0)
y2(2,12)                             244.206972011802 	(obj:0)
